(declare-const x sl.list.loc)
(declare-const xdata Int)
(declare-const a Int)
(assert (sl.sepcon (= a 23)
                   (sl.sepcon (sl.list.pointsto x sl.list.null)
                              (sl.list.data x xdata))))
(assert (not (sl.list.dpred.unary (not (= sl.alpha a)) x)))
